# Si band-structure non-SCF (step 2/2)
# Goal: eigenvalues along line-mode k-path using fixed CHGCAR from scf/
SYSTEM = Si bands

# Accuracy
PREC   = Accurate
ENCUT  = 450            # <-- YOUR converged value from module 04
                        #     MUST be identical in scf/ and nscf/
LREAL  = .FALSE.
LASPH  = .TRUE.

# Electronic — read CHGCAR and do NOT update charge
ICHARG = 11
EDIFF  = 1E-6
NELM   = 60
ALGO   = Normal
ISPIN  = 1

# Smearing
ISMEAR = 0
SIGMA  = 0.05

# Static
NSW    = 0
IBRION = -1

# Parallel

# I/O
LWAVE  = .FALSE.
LCHARG = .FALSE.
LORBIT = 11
